p cnf 529 1
529 0
w 1 0.2589
w 2 1 0.89044
w 2 -1 0.0719337
w 3 2 0
w 3 -2 1
w 4 3 0.355953
w 4 -3 0.980236
w 5 4 0.55179
w 5 -4 0.383959
w 6 5 1
w 6 -5 0
w 7 6 0.71032
w 7 -6 0.807107
w 8 7 1
w 8 -7 0
w 9 8 0
w 9 -8 1
w 10 9 0
w 10 -9 1
w 11 10 0
w 11 -10 1
w 12 11 0.0725146
w 12 -11 0.00137943
w 13 12 1
w 13 -12 0
w 14 13 1
w 14 -13 0
w 15 14 1
w 15 -14 0
w 16 15 0.657067
w 16 -15 0.940877
w 17 16 0
w 17 -16 1
w 18 17 0.493104
w 18 -17 0.564811
w 19 18 1
w 19 -18 0
w 20 19 0.185619
w 20 -19 0.692306
w 21 20 1
w 21 -20 0
w 22 21 1
w 22 -21 0
w 23 22 0
w 23 -22 1
w 24 1 0
w 24 -1 1
w 25 24 2 1
w 25 24 -2 1
w 25 -24 2 0
w 25 -24 -2 1
w 26 25 3 0
w 26 25 -3 1
w 26 -25 3 0
w 26 -25 -3 0
w 27 26 4 1
w 27 26 -4 0
w 27 -26 4 0
w 27 -26 -4 0
w 28 27 5 0
w 28 27 -5 1
w 28 -27 5 1
w 28 -27 -5 1
w 29 28 6 1
w 29 28 -6 1
w 29 -28 6 0
w 29 -28 -6 0
w 30 29 7 0
w 30 29 -7 1
w 30 -29 7 1
w 30 -29 -7 1
w 31 30 8 0
w 31 30 -8 0
w 31 -30 8 1
w 31 -30 -8 1
w 32 31 9 0
w 32 31 -9 0
w 32 -31 9 1
w 32 -31 -9 0
w 33 32 10 0
w 33 32 -10 1
w 33 -32 10 0
w 33 -32 -10 0
w 34 33 11 0
w 34 33 -11 1
w 34 -33 11 0
w 34 -33 -11 0
w 35 34 12 0.484648
w 35 34 -12 0.947199
w 35 -34 12 0.20552
w 35 -34 -12 0.232404
w 36 35 13 1
w 36 35 -13 0
w 36 -35 13 1
w 36 -35 -13 0
w 37 36 14 0
w 37 36 -14 0
w 37 -36 14 1
w 37 -36 -14 1
w 38 37 15 1
w 38 37 -15 1
w 38 -37 15 0
w 38 -37 -15 1
w 39 38 16 0
w 39 38 -16 1
w 39 -38 16 0
w 39 -38 -16 0
w 40 39 17 0.987544
w 40 39 -17 0.141101
w 40 -39 17 0.743323
w 40 -39 -17 0.457975
w 41 40 18 1
w 41 40 -18 1
w 41 -40 18 0
w 41 -40 -18 1
w 42 41 19 0
w 42 41 -19 0
w 42 -41 19 0
w 42 -41 -19 1
w 43 42 20 0.807176
w 43 42 -20 0.425521
w 43 -42 20 0.256997
w 43 -42 -20 0.366837
w 44 43 21 0
w 44 43 -21 0
w 44 -43 21 1
w 44 -43 -21 0
w 45 44 22 0
w 45 44 -22 0
w 45 -44 22 0
w 45 -44 -22 1
w 46 45 23 1
w 46 45 -23 0
w 46 -45 23 0
w 46 -45 -23 0
w 47 24 0.402351
w 47 -24 0.955444
w 48 47 25 0.157311
w 48 47 -25 0.130472
w 48 -47 25 0.605301
w 48 -47 -25 0.242788
w 49 48 26 0.957907
w 49 48 -26 0.0950268
w 49 -48 26 0.719626
w 49 -48 -26 0.383428
w 50 49 27 0
w 50 49 -27 1
w 50 -49 27 1
w 50 -49 -27 0
w 51 50 28 0
w 51 50 -28 0
w 51 -50 28 1
w 51 -50 -28 0
w 52 51 29 1
w 52 51 -29 0
w 52 -51 29 0
w 52 -51 -29 1
w 53 52 30 0.0168428
w 53 52 -30 0.691908
w 53 -52 30 0.223695
w 53 -52 -30 0.972287
w 54 53 31 1
w 54 53 -31 0
w 54 -53 31 0
w 54 -53 -31 1
w 55 54 32 1
w 55 54 -32 0
w 55 -54 32 0
w 55 -54 -32 1
w 56 55 33 0
w 56 55 -33 0
w 56 -55 33 0
w 56 -55 -33 1
w 57 56 34 0.839359
w 57 56 -34 0.400005
w 57 -56 34 0.757332
w 57 -56 -34 0.46766
w 58 57 35 1
w 58 57 -35 0
w 58 -57 35 0
w 58 -57 -35 0
w 59 58 36 0
w 59 58 -36 0
w 59 -58 36 1
w 59 -58 -36 1
w 60 59 37 0.653327
w 60 59 -37 0.302419
w 60 -59 37 0.0117915
w 60 -59 -37 0.277121
w 61 60 38 0
w 61 60 -38 0
w 61 -60 38 1
w 61 -60 -38 1
w 62 61 39 1
w 62 61 -39 1
w 62 -61 39 1
w 62 -61 -39 0
w 63 62 40 0.261237
w 63 62 -40 0.153112
w 63 -62 40 0.574466
w 63 -62 -40 0.728897
w 64 63 41 1
w 64 63 -41 0
w 64 -63 41 1
w 64 -63 -41 1
w 65 64 42 0
w 65 64 -42 0
w 65 -64 42 1
w 65 -64 -42 1
w 66 65 43 0.613523
w 66 65 -43 0.720956
w 66 -65 43 0.900155
w 66 -65 -43 0.890643
w 67 66 44 1
w 67 66 -44 0
w 67 -66 44 1
w 67 -66 -44 0
w 68 67 45 0.964808
w 68 67 -45 0.745771
w 68 -67 45 0.375247
w 68 -67 -45 0.717915
w 69 68 46 0
w 69 68 -46 1
w 69 -68 46 1
w 69 -68 -46 1
w 70 47 1
w 70 -47 0
w 71 70 48 1
w 71 70 -48 0
w 71 -70 48 0
w 71 -70 -48 1
w 72 71 49 0
w 72 71 -49 0
w 72 -71 49 1
w 72 -71 -49 1
w 73 72 50 1
w 73 72 -50 0
w 73 -72 50 0
w 73 -72 -50 0
w 74 73 51 0
w 74 73 -51 1
w 74 -73 51 1
w 74 -73 -51 1
w 75 74 52 1
w 75 74 -52 0
w 75 -74 52 0
w 75 -74 -52 0
w 76 75 53 0.8216
w 76 75 -53 0.291536
w 76 -75 53 0.234593
w 76 -75 -53 0.739946
w 77 76 54 0
w 77 76 -54 1
w 77 -76 54 1
w 77 -76 -54 1
w 78 77 55 0.356287
w 78 77 -55 0.337247
w 78 -77 55 0.32579
w 78 -77 -55 0.950002
w 79 78 56 0
w 79 78 -56 1
w 79 -78 56 0
w 79 -78 -56 0
w 80 79 57 1
w 80 79 -57 0
w 80 -79 57 1
w 80 -79 -57 0
w 81 80 58 1
w 81 80 -58 0
w 81 -80 58 0
w 81 -80 -58 1
w 82 81 59 1
w 82 81 -59 0
w 82 -81 59 1
w 82 -81 -59 0
w 83 82 60 0.00828265
w 83 82 -60 0.08493
w 83 -82 60 0.407775
w 83 -82 -60 0.659218
w 84 83 61 0.186299
w 84 83 -61 0.0155054
w 84 -83 61 0.189118
w 84 -83 -61 0.51209
w 85 84 62 0.710193
w 85 84 -62 0.106101
w 85 -84 62 0.409378
w 85 -84 -62 0.305739
w 86 85 63 1
w 86 85 -63 0
w 86 -85 63 1
w 86 -85 -63 0
w 87 86 64 0
w 87 86 -64 1
w 87 -86 64 1
w 87 -86 -64 0
w 88 87 65 0
w 88 87 -65 0
w 88 -87 65 1
w 88 -87 -65 1
w 89 88 66 0
w 89 88 -66 1
w 89 -88 66 1
w 89 -88 -66 0
w 90 89 67 0
w 90 89 -67 1
w 90 -89 67 0
w 90 -89 -67 1
w 91 90 68 1
w 91 90 -68 0
w 91 -90 68 1
w 91 -90 -68 0
w 92 91 69 1
w 92 91 -69 0
w 92 -91 69 0
w 92 -91 -69 0
w 93 70 0
w 93 -70 1
w 94 93 71 1
w 94 93 -71 0
w 94 -93 71 0
w 94 -93 -71 1
w 95 94 72 0.451773
w 95 94 -72 0.302287
w 95 -94 72 0.233491
w 95 -94 -72 0.752009
w 96 95 73 0
w 96 95 -73 1
w 96 -95 73 1
w 96 -95 -73 0
w 97 96 74 0
w 97 96 -74 0
w 97 -96 74 1
w 97 -96 -74 1
w 98 97 75 0
w 98 97 -75 1
w 98 -97 75 0
w 98 -97 -75 0
w 99 98 76 1
w 99 98 -76 0
w 99 -98 76 0
w 99 -98 -76 0
w 100 99 77 0
w 100 99 -77 1
w 100 -99 77 1
w 100 -99 -77 0
w 101 100 78 1
w 101 100 -78 0
w 101 -100 78 0
w 101 -100 -78 0
w 102 101 79 0.691029
w 102 101 -79 0.695726
w 102 -101 79 0.422058
w 102 -101 -79 0.187724
w 103 102 80 0
w 103 102 -80 0
w 103 -102 80 1
w 103 -102 -80 1
w 104 103 81 1
w 104 103 -81 1
w 104 -103 81 0
w 104 -103 -81 0
w 105 104 82 0
w 105 104 -82 1
w 105 -104 82 0
w 105 -104 -82 0
w 106 105 83 0.630243
w 106 105 -83 0.355761
w 106 -105 83 0.669955
w 106 -105 -83 0.540565
w 107 106 84 0
w 107 106 -84 1
w 107 -106 84 0
w 107 -106 -84 0
w 108 107 85 0
w 108 107 -85 0
w 108 -107 85 0
w 108 -107 -85 1
w 109 108 86 1
w 109 108 -86 1
w 109 -108 86 0
w 109 -108 -86 0
w 110 109 87 1
w 110 109 -87 1
w 110 -109 87 1
w 110 -109 -87 0
w 111 110 88 0.435008
w 111 110 -88 0.770222
w 111 -110 88 0.630368
w 111 -110 -88 0.65567
w 112 111 89 0
w 112 111 -89 1
w 112 -111 89 0
w 112 -111 -89 1
w 113 112 90 0.747021
w 113 112 -90 0.183209
w 113 -112 90 0.18043
w 113 -112 -90 0.0710661
w 114 113 91 0.581262
w 114 113 -91 0.357149
w 114 -113 91 0.0941638
w 114 -113 -91 0.677819
w 115 114 92 0
w 115 114 -92 0
w 115 -114 92 1
w 115 -114 -92 0
w 116 93 1
w 116 -93 0
w 117 116 94 1
w 117 116 -94 0
w 117 -116 94 0
w 117 -116 -94 1
w 118 117 95 0.784239
w 118 117 -95 0.674974
w 118 -117 95 0.494154
w 118 -117 -95 0.061482
w 119 118 96 1
w 119 118 -96 0
w 119 -118 96 0
w 119 -118 -96 0
w 120 119 97 0
w 120 119 -97 1
w 120 -119 97 0
w 120 -119 -97 1
w 121 120 98 0.464351
w 121 120 -98 0.0460567
w 121 -120 98 0.935014
w 121 -120 -98 0.0472315
w 122 121 99 1
w 122 121 -99 0
w 122 -121 99 0
w 122 -121 -99 0
w 123 122 100 1
w 123 122 -100 0
w 123 -122 100 0
w 123 -122 -100 0
w 124 123 101 0
w 124 123 -101 0
w 124 -123 101 0
w 124 -123 -101 1
w 125 124 102 0
w 125 124 -102 0
w 125 -124 102 0
w 125 -124 -102 1
w 126 125 103 0
w 126 125 -103 0
w 126 -125 103 0
w 126 -125 -103 1
w 127 126 104 0.529803
w 127 126 -104 0.380305
w 127 -126 104 0.845973
w 127 -126 -104 0.577034
w 128 127 105 0.330808
w 128 127 -105 0.8226
w 128 -127 105 0.323507
w 128 -127 -105 0.387116
w 129 128 106 1
w 129 128 -106 0
w 129 -128 106 1
w 129 -128 -106 1
w 130 129 107 0
w 130 129 -107 1
w 130 -129 107 1
w 130 -129 -107 0
w 131 130 108 0
w 131 130 -108 1
w 131 -130 108 1
w 131 -130 -108 1
w 132 131 109 0
w 132 131 -109 0
w 132 -131 109 0
w 132 -131 -109 1
w 133 132 110 0
w 133 132 -110 1
w 133 -132 110 1
w 133 -132 -110 0
w 134 133 111 0
w 134 133 -111 1
w 134 -133 111 0
w 134 -133 -111 1
w 135 134 112 1
w 135 134 -112 1
w 135 -134 112 1
w 135 -134 -112 0
w 136 135 113 0.528565
w 136 135 -113 0.117725
w 136 -135 113 0.687904
w 136 -135 -113 0.154903
w 137 136 114 0
w 137 136 -114 1
w 137 -136 114 0
w 137 -136 -114 0
w 138 137 115 0
w 138 137 -115 0
w 138 -137 115 1
w 138 -137 -115 1
w 139 116 1
w 139 -116 0
w 140 139 117 0
w 140 139 -117 0
w 140 -139 117 0
w 140 -139 -117 1
w 141 140 118 0.730795
w 141 140 -118 0.589178
w 141 -140 118 0.758008
w 141 -140 -118 0.123211
w 142 141 119 1
w 142 141 -119 0
w 142 -141 119 0
w 142 -141 -119 1
w 143 142 120 0.95526
w 143 142 -120 0.801377
w 143 -142 120 0.101575
w 143 -142 -120 0.301467
w 144 143 121 0.969971
w 144 143 -121 0.994405
w 144 -143 121 0.886447
w 144 -143 -121 0.0805232
w 145 144 122 0
w 145 144 -122 1
w 145 -144 122 1
w 145 -144 -122 1
w 146 145 123 1
w 146 145 -123 0
w 146 -145 123 0
w 146 -145 -123 0
w 147 146 124 1
w 147 146 -124 1
w 147 -146 124 0
w 147 -146 -124 0
w 148 147 125 0.812315
w 148 147 -125 0.0173672
w 148 -147 125 0.595515
w 148 -147 -125 0.925789
w 149 148 126 0.550774
w 149 148 -126 0.727166
w 149 -148 126 0.0656148
w 149 -148 -126 0.852242
w 150 149 127 0
w 150 149 -127 1
w 150 -149 127 0
w 150 -149 -127 0
w 151 150 128 0
w 151 150 -128 1
w 151 -150 128 0
w 151 -150 -128 1
w 152 151 129 1
w 152 151 -129 0
w 152 -151 129 0
w 152 -151 -129 1
w 153 152 130 0.0358851
w 153 152 -130 0.420347
w 153 -152 130 0.342436
w 153 -152 -130 0.485043
w 154 153 131 0
w 154 153 -131 0
w 154 -153 131 1
w 154 -153 -131 0
w 155 154 132 0
w 155 154 -132 0
w 155 -154 132 0
w 155 -154 -132 1
w 156 155 133 0
w 156 155 -133 1
w 156 -155 133 0
w 156 -155 -133 1
w 157 156 134 0
w 157 156 -134 1
w 157 -156 134 0
w 157 -156 -134 0
w 158 157 135 0
w 158 157 -135 0
w 158 -157 135 0
w 158 -157 -135 1
w 159 158 136 0
w 159 158 -136 0
w 159 -158 136 1
w 159 -158 -136 0
w 160 159 137 1
w 160 159 -137 0
w 160 -159 137 1
w 160 -159 -137 1
w 161 160 138 1
w 161 160 -138 1
w 161 -160 138 1
w 161 -160 -138 0
w 162 139 1
w 162 -139 0
w 163 162 140 0.677726
w 163 162 -140 0.95657
w 163 -162 140 0.0968074
w 163 -162 -140 0.486627
w 164 163 141 1
w 164 163 -141 0
w 164 -163 141 0
w 164 -163 -141 0
w 165 164 142 0.306788
w 165 164 -142 0.631727
w 165 -164 142 0.598719
w 165 -164 -142 0.539754
w 166 165 143 0.926628
w 166 165 -143 0.792327
w 166 -165 143 0.426942
w 166 -165 -143 0.551895
w 167 166 144 0
w 167 166 -144 0
w 167 -166 144 1
w 167 -166 -144 1
w 168 167 145 1
w 168 167 -145 0
w 168 -167 145 1
w 168 -167 -145 1
w 169 168 146 0.439973
w 169 168 -146 0.866752
w 169 -168 146 0.8421
w 169 -168 -146 0.53678
w 170 169 147 0
w 170 169 -147 1
w 170 -169 147 0
w 170 -169 -147 0
w 171 170 148 1
w 171 170 -148 0
w 171 -170 148 0
w 171 -170 -148 0
w 172 171 149 0.204506
w 172 171 -149 0.583451
w 172 -171 149 0.600985
w 172 -171 -149 0.631448
w 173 172 150 0
w 173 172 -150 1
w 173 -172 150 1
w 173 -172 -150 1
w 174 173 151 0
w 174 173 -151 0
w 174 -173 151 0
w 174 -173 -151 1
w 175 174 152 1
w 175 174 -152 0
w 175 -174 152 1
w 175 -174 -152 1
w 176 175 153 0.352932
w 176 175 -153 0.496323
w 176 -175 153 0.77151
w 176 -175 -153 0.946585
w 177 176 154 0
w 177 176 -154 1
w 177 -176 154 1
w 177 -176 -154 0
w 178 177 155 0
w 178 177 -155 0
w 178 -177 155 1
w 178 -177 -155 0
w 179 178 156 0
w 179 178 -156 1
w 179 -178 156 1
w 179 -178 -156 0
w 180 179 157 0
w 180 179 -157 1
w 180 -179 157 0
w 180 -179 -157 1
w 181 180 158 1
w 181 180 -158 0
w 181 -180 158 1
w 181 -180 -158 0
w 182 181 159 0.637335
w 182 181 -159 0.197924
w 182 -181 159 0.478155
w 182 -181 -159 0.408845
w 183 182 160 0
w 183 182 -160 0
w 183 -182 160 0
w 183 -182 -160 1
w 184 183 161 0
w 184 183 -161 1
w 184 -183 161 0
w 184 -183 -161 0
w 185 162 0.881301
w 185 -162 0.910919
w 186 185 163 0
w 186 185 -163 1
w 186 -185 163 1
w 186 -185 -163 0
w 187 186 164 1
w 187 186 -164 1
w 187 -186 164 1
w 187 -186 -164 0
w 188 187 165 0.585838
w 188 187 -165 0.548286
w 188 -187 165 0.759294
w 188 -187 -165 0.223173
w 189 188 166 0
w 189 188 -166 1
w 189 -188 166 1
w 189 -188 -166 0
w 190 189 167 1
w 190 189 -167 1
w 190 -189 167 1
w 190 -189 -167 0
w 191 190 168 0
w 191 190 -168 0
w 191 -190 168 1
w 191 -190 -168 0
w 192 191 169 0.0788016
w 192 191 -169 0.79617
w 192 -191 169 0.589906
w 192 -191 -169 0.121436
w 193 192 170 1
w 193 192 -170 0
w 193 -192 170 1
w 193 -192 -170 1
w 194 193 171 0.411306
w 194 193 -171 0.0858356
w 194 -193 171 0.647891
w 194 -193 -171 0.634479
w 195 194 172 0.88534
w 195 194 -172 0.266496
w 195 -194 172 0.722765
w 195 -194 -172 0.155371
w 196 195 173 1
w 196 195 -173 0
w 196 -195 173 0
w 196 -195 -173 0
w 197 196 174 0.431091
w 197 196 -174 0.742588
w 197 -196 174 0.864659
w 197 -196 -174 0.943009
w 198 197 175 1
w 198 197 -175 0
w 198 -197 175 1
w 198 -197 -175 1
w 199 198 176 0.121988
w 199 198 -176 0.176032
w 199 -198 176 0.632218
w 199 -198 -176 0.659537
w 200 199 177 0
w 200 199 -177 0
w 200 -199 177 1
w 200 -199 -177 1
w 201 200 178 1
w 201 200 -178 0
w 201 -200 178 1
w 201 -200 -178 1
w 202 201 179 1
w 202 201 -179 1
w 202 -201 179 1
w 202 -201 -179 0
w 203 202 180 1
w 203 202 -180 0
w 203 -202 180 0
w 203 -202 -180 1
w 204 203 181 0
w 204 203 -181 0
w 204 -203 181 0
w 204 -203 -181 1
w 205 204 182 0
w 205 204 -182 0
w 205 -204 182 1
w 205 -204 -182 1
w 206 205 183 1
w 206 205 -183 1
w 206 -205 183 0
w 206 -205 -183 0
w 207 206 184 0
w 207 206 -184 1
w 207 -206 184 1
w 207 -206 -184 1
w 208 185 0
w 208 -185 1
w 209 208 186 0
w 209 208 -186 1
w 209 -208 186 0
w 209 -208 -186 0
w 210 209 187 1
w 210 209 -187 0
w 210 -209 187 1
w 210 -209 -187 0
w 211 210 188 0
w 211 210 -188 0
w 211 -210 188 1
w 211 -210 -188 0
w 212 211 189 1
w 212 211 -189 1
w 212 -211 189 1
w 212 -211 -189 0
w 213 212 190 1
w 213 212 -190 0
w 213 -212 190 1
w 213 -212 -190 1
w 214 213 191 0
w 214 213 -191 1
w 214 -213 191 0
w 214 -213 -191 0
w 215 214 192 1
w 215 214 -192 1
w 215 -214 192 0
w 215 -214 -192 1
w 216 215 193 0
w 216 215 -193 1
w 216 -215 193 1
w 216 -215 -193 1
w 217 216 194 1
w 217 216 -194 1
w 217 -216 194 1
w 217 -216 -194 0
w 218 217 195 0
w 218 217 -195 1
w 218 -217 195 0
w 218 -217 -195 1
w 219 218 196 0.829146
w 219 218 -196 0.743328
w 219 -218 196 0.623781
w 219 -218 -196 0.815085
w 220 219 197 0
w 220 219 -197 0
w 220 -219 197 1
w 220 -219 -197 1
w 221 220 198 1
w 221 220 -198 0
w 221 -220 198 0
w 221 -220 -198 1
w 222 221 199 1
w 222 221 -199 1
w 222 -221 199 1
w 222 -221 -199 0
w 223 222 200 0
w 223 222 -200 1
w 223 -222 200 1
w 223 -222 -200 1
w 224 223 201 0
w 224 223 -201 1
w 224 -223 201 1
w 224 -223 -201 1
w 225 224 202 1
w 225 224 -202 1
w 225 -224 202 0
w 225 -224 -202 1
w 226 225 203 1
w 226 225 -203 0
w 226 -225 203 0
w 226 -225 -203 0
w 227 226 204 1
w 227 226 -204 1
w 227 -226 204 1
w 227 -226 -204 0
w 228 227 205 1
w 228 227 -205 1
w 228 -227 205 1
w 228 -227 -205 0
w 229 228 206 0
w 229 228 -206 0
w 229 -228 206 0
w 229 -228 -206 1
w 230 229 207 0
w 230 229 -207 0
w 230 -229 207 1
w 230 -229 -207 1
w 231 208 1
w 231 -208 0
w 232 231 209 0
w 232 231 -209 1
w 232 -231 209 0
w 232 -231 -209 0
w 233 232 210 0
w 233 232 -210 1
w 233 -232 210 0
w 233 -232 -210 1
w 234 233 211 1
w 234 233 -211 0
w 234 -233 211 0
w 234 -233 -211 1
w 235 234 212 0.568001
w 235 234 -212 0.624765
w 235 -234 212 0.50689
w 235 -234 -212 0.306897
w 236 235 213 1
w 236 235 -213 1
w 236 -235 213 0
w 236 -235 -213 0
w 237 236 214 0
w 237 236 -214 1
w 237 -236 214 0
w 237 -236 -214 1
w 238 237 215 0
w 238 237 -215 1
w 238 -237 215 0
w 238 -237 -215 0
w 239 238 216 0.252885
w 239 238 -216 0.562161
w 239 -238 216 0.353173
w 239 -238 -216 0.416569
w 240 239 217 1
w 240 239 -217 1
w 240 -239 217 0
w 240 -239 -217 0
w 241 240 218 0
w 241 240 -218 1
w 241 -240 218 1
w 241 -240 -218 0
w 242 241 219 0
w 242 241 -219 1
w 242 -241 219 1
w 242 -241 -219 1
w 243 242 220 0
w 243 242 -220 1
w 243 -242 220 1
w 243 -242 -220 0
w 244 243 221 0
w 244 243 -221 0
w 244 -243 221 0
w 244 -243 -221 1
w 245 244 222 0
w 245 244 -222 0
w 245 -244 222 1
w 245 -244 -222 1
w 246 245 223 1
w 246 245 -223 1
w 246 -245 223 0
w 246 -245 -223 1
w 247 246 224 1
w 247 246 -224 1
w 247 -246 224 0
w 247 -246 -224 0
w 248 247 225 0
w 248 247 -225 1
w 248 -247 225 1
w 248 -247 -225 1
w 249 248 226 1
w 249 248 -226 1
w 249 -248 226 1
w 249 -248 -226 0
w 250 249 227 0
w 250 249 -227 1
w 250 -249 227 0
w 250 -249 -227 1
w 251 250 228 1
w 251 250 -228 1
w 251 -250 228 0
w 251 -250 -228 0
w 252 251 229 1
w 252 251 -229 1
w 252 -251 229 0
w 252 -251 -229 0
w 253 252 230 1
w 253 252 -230 0
w 253 -252 230 1
w 253 -252 -230 1
w 254 231 0
w 254 -231 1
w 255 254 232 0.30791
w 255 254 -232 0.310394
w 255 -254 232 0.408968
w 255 -254 -232 0.938306
w 256 255 233 0
w 256 255 -233 1
w 256 -255 233 0
w 256 -255 -233 0
w 257 256 234 0
w 257 256 -234 1
w 257 -256 234 0
w 257 -256 -234 1
w 258 257 235 0
w 258 257 -235 1
w 258 -257 235 0
w 258 -257 -235 0
w 259 258 236 0.76329
w 259 258 -236 0.213861
w 259 -258 236 0.763208
w 259 -258 -236 0.536888
w 260 259 237 0
w 260 259 -237 0
w 260 -259 237 0
w 260 -259 -237 1
w 261 260 238 0
w 261 260 -238 1
w 261 -260 238 1
w 261 -260 -238 1
w 262 261 239 1
w 262 261 -239 1
w 262 -261 239 0
w 262 -261 -239 1
w 263 262 240 1
w 263 262 -240 0
w 263 -262 240 1
w 263 -262 -240 0
w 264 263 241 1
w 264 263 -241 0
w 264 -263 241 0
w 264 -263 -241 1
w 265 264 242 0
w 265 264 -242 1
w 265 -264 242 1
w 265 -264 -242 1
w 266 265 243 0.202382
w 266 265 -243 0.127466
w 266 -265 243 0.946188
w 266 -265 -243 0.424728
w 267 266 244 1
w 267 266 -244 0
w 267 -266 244 0
w 267 -266 -244 1
w 268 267 245 0
w 268 267 -245 0
w 268 -267 245 1
w 268 -267 -245 0
w 269 268 246 1
w 269 268 -246 1
w 269 -268 246 1
w 269 -268 -246 0
w 270 269 247 0
w 270 269 -247 1
w 270 -269 247 0
w 270 -269 -247 0
w 271 270 248 0.268885
w 271 270 -248 0.375575
w 271 -270 248 0.705809
w 271 -270 -248 0.992303
w 272 271 249 0
w 272 271 -249 0
w 272 -271 249 1
w 272 -271 -249 1
w 273 272 250 1
w 273 272 -250 1
w 273 -272 250 0
w 273 -272 -250 0
w 274 273 251 0.624959
w 274 273 -251 0.807679
w 274 -273 251 0.974374
w 274 -273 -251 0.865061
w 275 274 252 1
w 275 274 -252 1
w 275 -274 252 1
w 275 -274 -252 0
w 276 275 253 1
w 276 275 -253 0
w 276 -275 253 1
w 276 -275 -253 0
w 277 254 0
w 277 -254 1
w 278 277 255 1
w 278 277 -255 1
w 278 -277 255 1
w 278 -277 -255 0
w 279 278 256 0.836608
w 279 278 -256 0.341091
w 279 -278 256 0.412363
w 279 -278 -256 0.358658
w 280 279 257 1
w 280 279 -257 0
w 280 -279 257 1
w 280 -279 -257 1
w 281 280 258 1
w 281 280 -258 1
w 281 -280 258 0
w 281 -280 -258 0
w 282 281 259 0.888666
w 282 281 -259 0.838655
w 282 -281 259 0.237334
w 282 -281 -259 0.0494465
w 283 282 260 0
w 283 282 -260 0
w 283 -282 260 1
w 283 -282 -260 1
w 284 283 261 0
w 284 283 -261 0
w 284 -283 261 1
w 284 -283 -261 0
w 285 284 262 0
w 285 284 -262 1
w 285 -284 262 0
w 285 -284 -262 1
w 286 285 263 0.495844
w 286 285 -263 0.228088
w 286 -285 263 0.257726
w 286 -285 -263 0.509622
w 287 286 264 0
w 287 286 -264 1
w 287 -286 264 1
w 287 -286 -264 1
w 288 287 265 1
w 288 287 -265 0
w 288 -287 265 0
w 288 -287 -265 1
w 289 288 266 1
w 289 288 -266 1
w 289 -288 266 1
w 289 -288 -266 0
w 290 289 267 1
w 290 289 -267 0
w 290 -289 267 1
w 290 -289 -267 0
w 291 290 268 1
w 291 290 -268 1
w 291 -290 268 0
w 291 -290 -268 0
w 292 291 269 1
w 292 291 -269 1
w 292 -291 269 1
w 292 -291 -269 0
w 293 292 270 0
w 293 292 -270 1
w 293 -292 270 1
w 293 -292 -270 1
w 294 293 271 0
w 294 293 -271 1
w 294 -293 271 1
w 294 -293 -271 1
w 295 294 272 0
w 295 294 -272 1
w 295 -294 272 0
w 295 -294 -272 0
w 296 295 273 0
w 296 295 -273 0
w 296 -295 273 1
w 296 -295 -273 0
w 297 296 274 0
w 297 296 -274 1
w 297 -296 274 0
w 297 -296 -274 1
w 298 297 275 0.117774
w 298 297 -275 0.0795198
w 298 -297 275 0.468791
w 298 -297 -275 0.606438
w 299 298 276 0
w 299 298 -276 1
w 299 -298 276 0
w 299 -298 -276 1
w 300 277 0.723368
w 300 -277 0.542954
w 301 300 278 0
w 301 300 -278 0
w 301 -300 278 1
w 301 -300 -278 1
w 302 301 279 0
w 302 301 -279 1
w 302 -301 279 0
w 302 -301 -279 0
w 303 302 280 0.0438865
w 303 302 -280 0.325182
w 303 -302 280 0.468039
w 303 -302 -280 0.690936
w 304 303 281 0
w 304 303 -281 1
w 304 -303 281 0
w 304 -303 -281 1
w 305 304 282 0
w 305 304 -282 1
w 305 -304 282 0
w 305 -304 -282 0
w 306 305 283 0.528157
w 306 305 -283 0.46355
w 306 -305 283 0.667583
w 306 -305 -283 0.251526
w 307 306 284 0
w 307 306 -284 1
w 307 -306 284 1
w 307 -306 -284 0
w 308 307 285 0
w 308 307 -285 0
w 308 -307 285 1
w 308 -307 -285 0
w 309 308 286 0
w 309 308 -286 0
w 309 -308 286 0
w 309 -308 -286 1
w 310 309 287 1
w 310 309 -287 0
w 310 -309 287 1
w 310 -309 -287 0
w 311 310 288 0.754629
w 311 310 -288 0.856327
w 311 -310 288 0.0351576
w 311 -310 -288 0.569175
w 312 311 289 1
w 312 311 -289 1
w 312 -311 289 1
w 312 -311 -289 0
w 313 312 290 0.786718
w 313 312 -290 0.629436
w 313 -312 290 0.258001
w 313 -312 -290 0.498397
w 314 313 291 1
w 314 313 -291 0
w 314 -313 291 1
w 314 -313 -291 1
w 315 314 292 0.786407
w 315 314 -292 0.795588
w 315 -314 292 0.168721
w 315 -314 -292 0.485508
w 316 315 293 1
w 316 315 -293 1
w 316 -315 293 1
w 316 -315 -293 0
w 317 316 294 0
w 317 316 -294 0
w 317 -316 294 0
w 317 -316 -294 1
w 318 317 295 1
w 318 317 -295 1
w 318 -317 295 0
w 318 -317 -295 0
w 319 318 296 0
w 319 318 -296 0
w 319 -318 296 0
w 319 -318 -296 1
w 320 319 297 0
w 320 319 -297 1
w 320 -319 297 1
w 320 -319 -297 1
w 321 320 298 0
w 321 320 -298 1
w 321 -320 298 1
w 321 -320 -298 0
w 322 321 299 0
w 322 321 -299 1
w 322 -321 299 0
w 322 -321 -299 0
w 323 300 0
w 323 -300 1
w 324 323 301 0
w 324 323 -301 0
w 324 -323 301 0
w 324 -323 -301 1
w 325 324 302 0.754785
w 325 324 -302 0.197405
w 325 -324 302 0.510008
w 325 -324 -302 0.0500772
w 326 325 303 0.468459
w 326 325 -303 0.843765
w 326 -325 303 0.916057
w 326 -325 -303 0.496697
w 327 326 304 0.63014
w 327 326 -304 0.219013
w 327 -326 304 0.328194
w 327 -326 -304 0.169629
w 328 327 305 1
w 328 327 -305 0
w 328 -327 305 1
w 328 -327 -305 1
w 329 328 306 0
w 329 328 -306 1
w 329 -328 306 1
w 329 -328 -306 0
w 330 329 307 1
w 330 329 -307 1
w 330 -329 307 0
w 330 -329 -307 1
w 331 330 308 0
w 331 330 -308 0
w 331 -330 308 1
w 331 -330 -308 1
w 332 331 309 1
w 332 331 -309 0
w 332 -331 309 0
w 332 -331 -309 0
w 333 332 310 0.760487
w 333 332 -310 0.833528
w 333 -332 310 0.325961
w 333 -332 -310 0.930116
w 334 333 311 1
w 334 333 -311 0
w 334 -333 311 1
w 334 -333 -311 0
w 335 334 312 0.908576
w 335 334 -312 0.975684
w 335 -334 312 0.839225
w 335 -334 -312 0.101091
w 336 335 313 1
w 336 335 -313 0
w 336 -335 313 0
w 336 -335 -313 1
w 337 336 314 1
w 337 336 -314 1
w 337 -336 314 1
w 337 -336 -314 0
w 338 337 315 0
w 338 337 -315 1
w 338 -337 315 0
w 338 -337 -315 0
w 339 338 316 1
w 339 338 -316 0
w 339 -338 316 1
w 339 -338 -316 1
w 340 339 317 0.462634
w 340 339 -317 0.796581
w 340 -339 317 0.659281
w 340 -339 -317 0.745861
w 341 340 318 0
w 341 340 -318 1
w 341 -340 318 1
w 341 -340 -318 1
w 342 341 319 0
w 342 341 -319 1
w 342 -341 319 1
w 342 -341 -319 1
w 343 342 320 0
w 343 342 -320 1
w 343 -342 320 1
w 343 -342 -320 1
w 344 343 321 0.0519215
w 344 343 -321 0.748814
w 344 -343 321 0.547689
w 344 -343 -321 0.212644
w 345 344 322 0.215717
w 345 344 -322 0.133853
w 345 -344 322 0.718029
w 345 -344 -322 0.209705
w 346 323 0.180662
w 346 -323 0.00628652
w 347 346 324 0
w 347 346 -324 0
w 347 -346 324 1
w 347 -346 -324 1
w 348 347 325 0
w 348 347 -325 1
w 348 -347 325 0
w 348 -347 -325 0
w 349 348 326 0
w 349 348 -326 1
w 349 -348 326 0
w 349 -348 -326 1
w 350 349 327 1
w 350 349 -327 0
w 350 -349 327 0
w 350 -349 -327 1
w 351 350 328 1
w 351 350 -328 0
w 351 -350 328 0
w 351 -350 -328 1
w 352 351 329 0
w 352 351 -329 1
w 352 -351 329 0
w 352 -351 -329 1
w 353 352 330 0
w 353 352 -330 1
w 353 -352 330 0
w 353 -352 -330 0
w 354 353 331 0
w 354 353 -331 0
w 354 -353 331 0
w 354 -353 -331 1
w 355 354 332 0.398204
w 355 354 -332 0.432765
w 355 -354 332 0.192011
w 355 -354 -332 0.409642
w 356 355 333 1
w 356 355 -333 0
w 356 -355 333 0
w 356 -355 -333 0
w 357 356 334 0
w 357 356 -334 0
w 357 -356 334 1
w 357 -356 -334 1
w 358 357 335 1
w 358 357 -335 1
w 358 -357 335 1
w 358 -357 -335 0
w 359 358 336 0.703809
w 359 358 -336 0.328224
w 359 -358 336 0.494137
w 359 -358 -336 0.982377
w 360 359 337 0.904413
w 360 359 -337 0.597435
w 360 -359 337 0.244064
w 360 -359 -337 0.44573
w 361 360 338 1
w 361 360 -338 1
w 361 -360 338 1
w 361 -360 -338 0
w 362 361 339 1
w 362 361 -339 1
w 362 -361 339 0
w 362 -361 -339 0
w 363 362 340 1
w 363 362 -340 0
w 363 -362 340 1
w 363 -362 -340 0
w 364 363 341 0
w 364 363 -341 1
w 364 -363 341 0
w 364 -363 -341 0
w 365 364 342 1
w 365 364 -342 0
w 365 -364 342 0
w 365 -364 -342 0
w 366 365 343 1
w 366 365 -343 1
w 366 -365 343 0
w 366 -365 -343 1
w 367 366 344 1
w 367 366 -344 0
w 367 -366 344 1
w 367 -366 -344 0
w 368 367 345 1
w 368 367 -345 1
w 368 -367 345 1
w 368 -367 -345 0
w 369 346 0
w 369 -346 1
w 370 369 347 1
w 370 369 -347 0
w 370 -369 347 1
w 370 -369 -347 0
w 371 370 348 1
w 371 370 -348 0
w 371 -370 348 1
w 371 -370 -348 0
w 372 371 349 1
w 372 371 -349 0
w 372 -371 349 0
w 372 -371 -349 1
w 373 372 350 0
w 373 372 -350 0
w 373 -372 350 0
w 373 -372 -350 1
w 374 373 351 1
w 374 373 -351 1
w 374 -373 351 0
w 374 -373 -351 0
w 375 374 352 0
w 375 374 -352 1
w 375 -374 352 0
w 375 -374 -352 0
w 376 375 353 1
w 376 375 -353 0
w 376 -375 353 1
w 376 -375 -353 0
w 377 376 354 0.931588
w 377 376 -354 0.475077
w 377 -376 354 0.0416689
w 377 -376 -354 0.176167
w 378 377 355 0.263067
w 378 377 -355 0.333896
w 378 -377 355 0.449114
w 378 -377 -355 0.597437
w 379 378 356 1
w 379 378 -356 0
w 379 -378 356 1
w 379 -378 -356 1
w 380 379 357 0.0443872
w 380 379 -357 0.147295
w 380 -379 357 0.647958
w 380 -379 -357 0.51265
w 381 380 358 0
w 381 380 -358 1
w 381 -380 358 0
w 381 -380 -358 0
w 382 381 359 0
w 382 381 -359 0
w 382 -381 359 0
w 382 -381 -359 1
w 383 382 360 0
w 383 382 -360 1
w 383 -382 360 0
w 383 -382 -360 0
w 384 383 361 0
w 384 383 -361 1
w 384 -383 361 0
w 384 -383 -361 0
w 385 384 362 1
w 385 384 -362 0
w 385 -384 362 1
w 385 -384 -362 0
w 386 385 363 0
w 386 385 -363 0
w 386 -385 363 1
w 386 -385 -363 1
w 387 386 364 1
w 387 386 -364 1
w 387 -386 364 0
w 387 -386 -364 0
w 388 387 365 0
w 388 387 -365 0
w 388 -387 365 1
w 388 -387 -365 1
w 389 388 366 1
w 389 388 -366 0
w 389 -388 366 1
w 389 -388 -366 1
w 390 389 367 0.196732
w 390 389 -367 0.0188333
w 390 -389 367 0.0372695
w 390 -389 -367 0.16257
w 391 390 368 0
w 391 390 -368 1
w 391 -390 368 1
w 391 -390 -368 1
w 392 369 0.143113
w 392 -369 0.485967
w 393 392 370 1
w 393 392 -370 0
w 393 -392 370 1
w 393 -392 -370 0
w 394 393 371 0.61497
w 394 393 -371 0.531927
w 394 -393 371 0.423947
w 394 -393 -371 0.80674
w 395 394 372 1
w 395 394 -372 0
w 395 -394 372 1
w 395 -394 -372 0
w 396 395 373 0
w 396 395 -373 1
w 396 -395 373 1
w 396 -395 -373 0
w 397 396 374 0.43701
w 397 396 -374 0.423444
w 397 -396 374 0.526589
w 397 -396 -374 0.0591564
w 398 397 375 0
w 398 397 -375 1
w 398 -397 375 0
w 398 -397 -375 0
w 399 398 376 1
w 399 398 -376 0
w 399 -398 376 0
w 399 -398 -376 0
w 400 399 377 0.716365
w 400 399 -377 0.207546
w 400 -399 377 0.371228
w 400 -399 -377 0.523105
w 401 400 378 1
w 401 400 -378 1
w 401 -400 378 0
w 401 -400 -378 0
w 402 401 379 0
w 402 401 -379 1
w 402 -401 379 1
w 402 -401 -379 0
w 403 402 380 0
w 403 402 -380 0
w 403 -402 380 1
w 403 -402 -380 0
w 404 403 381 0
w 404 403 -381 0
w 404 -403 381 1
w 404 -403 -381 0
w 405 404 382 0
w 405 404 -382 0
w 405 -404 382 0
w 405 -404 -382 1
w 406 405 383 1
w 406 405 -383 0
w 406 -405 383 0
w 406 -405 -383 1
w 407 406 384 1
w 407 406 -384 1
w 407 -406 384 0
w 407 -406 -384 1
w 408 407 385 1
w 408 407 -385 1
w 408 -407 385 0
w 408 -407 -385 0
w 409 408 386 0
w 409 408 -386 1
w 409 -408 386 1
w 409 -408 -386 0
w 410 409 387 0.848047
w 410 409 -387 0.375604
w 410 -409 387 0.446005
w 410 -409 -387 0.822152
w 411 410 388 0.0179091
w 411 410 -388 0.905265
w 411 -410 388 0.793541
w 411 -410 -388 0.619519
w 412 411 389 0
w 412 411 -389 1
w 412 -411 389 1
w 412 -411 -389 1
w 413 412 390 0
w 413 412 -390 0
w 413 -412 390 1
w 413 -412 -390 0
w 414 413 391 0
w 414 413 -391 0
w 414 -413 391 1
w 414 -413 -391 1
w 415 392 1
w 415 -392 0
w 416 415 393 1
w 416 415 -393 0
w 416 -415 393 1
w 416 -415 -393 0
w 417 416 394 1
w 417 416 -394 0
w 417 -416 394 0
w 417 -416 -394 0
w 418 417 395 0
w 418 417 -395 0
w 418 -417 395 1
w 418 -417 -395 1
w 419 418 396 0
w 419 418 -396 1
w 419 -418 396 0
w 419 -418 -396 0
w 420 419 397 0.861946
w 420 419 -397 0.675712
w 420 -419 397 0.13821
w 420 -419 -397 0.126295
w 421 420 398 0.134267
w 421 420 -398 0.835044
w 421 -420 398 0.920709
w 421 -420 -398 0.332767
w 422 421 399 1
w 422 421 -399 0
w 422 -421 399 1
w 422 -421 -399 0
w 423 422 400 0.850752
w 423 422 -400 0.27944
w 423 -422 400 0.41801
w 423 -422 -400 0.387312
w 424 423 401 0
w 424 423 -401 1
w 424 -423 401 0
w 424 -423 -401 1
w 425 424 402 1
w 425 424 -402 1
w 425 -424 402 0
w 425 -424 -402 1
w 426 425 403 1
w 426 425 -403 0
w 426 -425 403 1
w 426 -425 -403 1
w 427 426 404 0
w 427 426 -404 1
w 427 -426 404 0
w 427 -426 -404 1
w 428 427 405 1
w 428 427 -405 0
w 428 -427 405 0
w 428 -427 -405 1
w 429 428 406 0.778774
w 429 428 -406 0.568005
w 429 -428 406 0.249816
w 429 -428 -406 0.196783
w 430 429 407 0.902577
w 430 429 -407 0.275482
w 430 -429 407 0.784455
w 430 -429 -407 0.7222
w 431 430 408 0
w 431 430 -408 1
w 431 -430 408 1
w 431 -430 -408 1
w 432 431 409 0.848012
w 432 431 -409 0.025983
w 432 -431 409 0.806974
w 432 -431 -409 0.806067
w 433 432 410 0
w 433 432 -410 1
w 433 -432 410 1
w 433 -432 -410 1
w 434 433 411 1
w 434 433 -411 0
w 434 -433 411 1
w 434 -433 -411 0
w 435 434 412 0.105795
w 435 434 -412 0.678955
w 435 -434 412 0.0040179
w 435 -434 -412 0.302578
w 436 435 413 1
w 436 435 -413 0
w 436 -435 413 0
w 436 -435 -413 0
w 437 436 414 1
w 437 436 -414 1
w 437 -436 414 1
w 437 -436 -414 0
w 438 415 1
w 438 -415 0
w 439 438 416 0
w 439 438 -416 1
w 439 -438 416 0
w 439 -438 -416 1
w 440 439 417 0.144551
w 440 439 -417 0.834586
w 440 -439 417 0.444354
w 440 -439 -417 0.468027
w 441 440 418 1
w 441 440 -418 1
w 441 -440 418 0
w 441 -440 -418 0
w 442 441 419 0.0181882
w 442 441 -419 0.9864
w 442 -441 419 0.20342
w 442 -441 -419 0.65246
w 443 442 420 0.78148
w 443 442 -420 0.0711875
w 443 -442 420 0.521791
w 443 -442 -420 0.993928
w 444 443 421 1
w 444 443 -421 1
w 444 -443 421 0
w 444 -443 -421 1
w 445 444 422 1
w 445 444 -422 1
w 445 -444 422 0
w 445 -444 -422 1
w 446 445 423 1
w 446 445 -423 1
w 446 -445 423 0
w 446 -445 -423 0
w 447 446 424 0
w 447 446 -424 1
w 447 -446 424 0
w 447 -446 -424 0
w 448 447 425 0.221915
w 448 447 -425 0.795315
w 448 -447 425 0.920633
w 448 -447 -425 0.425336
w 449 448 426 0
w 449 448 -426 1
w 449 -448 426 0
w 449 -448 -426 0
w 450 449 427 1
w 450 449 -427 1
w 450 -449 427 0
w 450 -449 -427 1
w 451 450 428 0
w 451 450 -428 0
w 451 -450 428 1
w 451 -450 -428 0
w 452 451 429 0.236307
w 452 451 -429 0.554753
w 452 -451 429 0.0199851
w 452 -451 -429 0.445917
w 453 452 430 0
w 453 452 -430 0
w 453 -452 430 1
w 453 -452 -430 0
w 454 453 431 1
w 454 453 -431 0
w 454 -453 431 1
w 454 -453 -431 0
w 455 454 432 0.89877
w 455 454 -432 0.721149
w 455 -454 432 0.422992
w 455 -454 -432 0.234189
w 456 455 433 0.577059
w 456 455 -433 0.908951
w 456 -455 433 0.770927
w 456 -455 -433 0.958315
w 457 456 434 1
w 457 456 -434 0
w 457 -456 434 0
w 457 -456 -434 1
w 458 457 435 0.514596
w 458 457 -435 0.539388
w 458 -457 435 0.988828
w 458 -457 -435 0.960513
w 459 458 436 0.534838
w 459 458 -436 0.844324
w 459 -458 436 0.0480882
w 459 -458 -436 0.401921
w 460 459 437 1
w 460 459 -437 0
w 460 -459 437 0
w 460 -459 -437 0
w 461 438 1
w 461 -438 0
w 462 461 439 0
w 462 461 -439 0
w 462 -461 439 1
w 462 -461 -439 1
w 463 462 440 0.339649
w 463 462 -440 0.419223
w 463 -462 440 0.823909
w 463 -462 -440 0.756656
w 464 463 441 1
w 464 463 -441 0
w 464 -463 441 0
w 464 -463 -441 0
w 465 464 442 1
w 465 464 -442 0
w 465 -464 442 0
w 465 -464 -442 1
w 466 465 443 1
w 466 465 -443 0
w 466 -465 443 1
w 466 -465 -443 1
w 467 466 444 1
w 467 466 -444 1
w 467 -466 444 1
w 467 -466 -444 0
w 468 467 445 1
w 468 467 -445 1
w 468 -467 445 1
w 468 -467 -445 0
w 469 468 446 0.995541
w 469 468 -446 0.0152878
w 469 -468 446 0.664731
w 469 -468 -446 0.752197
w 470 469 447 0
w 470 469 -447 0
w 470 -469 447 0
w 470 -469 -447 1
w 471 470 448 0.0835381
w 471 470 -448 0.846737
w 471 -470 448 0.379468
w 471 -470 -448 0.406812
w 472 471 449 1
w 472 471 -449 0
w 472 -471 449 0
w 472 -471 -449 0
w 473 472 450 1
w 473 472 -450 1
w 473 -472 450 1
w 473 -472 -450 0
w 474 473 451 0.517256
w 474 473 -451 0.54383
w 474 -473 451 0.538521
w 474 -473 -451 0.113321
w 475 474 452 1
w 475 474 -452 1
w 475 -474 452 0
w 475 -474 -452 0
w 476 475 453 0
w 476 475 -453 0
w 476 -475 453 0
w 476 -475 -453 1
w 477 476 454 0
w 477 476 -454 1
w 477 -476 454 0
w 477 -476 -454 0
w 478 477 455 1
w 478 477 -455 1
w 478 -477 455 1
w 478 -477 -455 0
w 479 478 456 0.400593
w 479 478 -456 0.00176872
w 479 -478 456 0.379945
w 479 -478 -456 0.969193
w 480 479 457 0.8972
w 480 479 -457 0.513023
w 480 -479 457 0.422919
w 480 -479 -457 0.0105207
w 481 480 458 0.956981
w 481 480 -458 0.139129
w 481 -480 458 0.94706
w 481 -480 -458 0.243239
w 482 481 459 1
w 482 481 -459 1
w 482 -481 459 1
w 482 -481 -459 0
w 483 482 460 0
w 483 482 -460 1
w 483 -482 460 1
w 483 -482 -460 0
w 484 461 0
w 484 -461 1
w 485 484 462 0.0481139
w 485 484 -462 0.960164
w 485 -484 462 0.256502
w 485 -484 -462 0.858572
w 486 485 463 0
w 486 485 -463 1
w 486 -485 463 0
w 486 -485 -463 0
w 487 486 464 0
w 487 486 -464 1
w 487 -486 464 1
w 487 -486 -464 0
w 488 487 465 0
w 488 487 -465 1
w 488 -487 465 1
w 488 -487 -465 1
w 489 488 466 0
w 489 488 -466 0
w 489 -488 466 0
w 489 -488 -466 1
w 490 489 467 1
w 490 489 -467 1
w 490 -489 467 0
w 490 -489 -467 1
w 491 490 468 1
w 491 490 -468 0
w 491 -490 468 1
w 491 -490 -468 1
w 492 491 469 1
w 492 491 -469 0
w 492 -491 469 0
w 492 -491 -469 1
w 493 492 470 0.633709
w 493 492 -470 0.728034
w 493 -492 470 0.347973
w 493 -492 -470 0.779946
w 494 493 471 1
w 494 493 -471 1
w 494 -493 471 1
w 494 -493 -471 0
w 495 494 472 0.336041
w 495 494 -472 0.7188
w 495 -494 472 0.399474
w 495 -494 -472 0.847613
w 496 495 473 1
w 496 495 -473 0
w 496 -495 473 1
w 496 -495 -473 1
w 497 496 474 0.554872
w 497 496 -474 0.753363
w 497 -496 474 0.368321
w 497 -496 -474 0.749225
w 498 497 475 1
w 498 497 -475 1
w 498 -497 475 0
w 498 -497 -475 0
w 499 498 476 0
w 499 498 -476 0
w 499 -498 476 0
w 499 -498 -476 1
w 500 499 477 1
w 500 499 -477 0
w 500 -499 477 1
w 500 -499 -477 0
w 501 500 478 0
w 501 500 -478 1
w 501 -500 478 0
w 501 -500 -478 1
w 502 501 479 1
w 502 501 -479 0
w 502 -501 479 1
w 502 -501 -479 1
w 503 502 480 0
w 503 502 -480 0
w 503 -502 480 0
w 503 -502 -480 1
w 504 503 481 1
w 504 503 -481 1
w 504 -503 481 1
w 504 -503 -481 0
w 505 504 482 1
w 505 504 -482 0
w 505 -504 482 1
w 505 -504 -482 1
w 506 505 483 0
w 506 505 -483 1
w 506 -505 483 0
w 506 -505 -483 0
w 507 484 1
w 507 -484 0
w 508 507 485 1
w 508 507 -485 0
w 508 -507 485 1
w 508 -507 -485 0
w 509 508 486 0
w 509 508 -486 0
w 509 -508 486 1
w 509 -508 -486 0
w 510 509 487 0
w 510 509 -487 0
w 510 -509 487 1
w 510 -509 -487 1
w 511 510 488 1
w 511 510 -488 0
w 511 -510 488 1
w 511 -510 -488 0
w 512 511 489 1
w 512 511 -489 0
w 512 -511 489 1
w 512 -511 -489 0
w 513 512 490 0
w 513 512 -490 0
w 513 -512 490 1
w 513 -512 -490 0
w 514 513 491 0
w 514 513 -491 1
w 514 -513 491 0
w 514 -513 -491 1
w 515 514 492 1
w 515 514 -492 0
w 515 -514 492 0
w 515 -514 -492 1
w 516 515 493 1
w 516 515 -493 1
w 516 -515 493 0
w 516 -515 -493 0
w 517 516 494 0.344305
w 517 516 -494 0.547346
w 517 -516 494 0.981806
w 517 -516 -494 0.82166
w 518 517 495 0
w 518 517 -495 0
w 518 -517 495 0
w 518 -517 -495 1
w 519 518 496 0
w 519 518 -496 1
w 519 -518 496 1
w 519 -518 -496 1
w 520 519 497 0
w 520 519 -497 0
w 520 -519 497 1
w 520 -519 -497 0
w 521 520 498 1
w 521 520 -498 0
w 521 -520 498 1
w 521 -520 -498 1
w 522 521 499 0
w 522 521 -499 1
w 522 -521 499 0
w 522 -521 -499 0
w 523 522 500 0.819767
w 523 522 -500 0.125255
w 523 -522 500 0.830923
w 523 -522 -500 0.641427
w 524 523 501 1
w 524 523 -501 0
w 524 -523 501 0
w 524 -523 -501 0
w 525 524 502 1
w 525 524 -502 0
w 525 -524 502 1
w 525 -524 -502 0
w 526 525 503 1
w 526 525 -503 0
w 526 -525 503 0
w 526 -525 -503 0
w 527 526 504 0
w 527 526 -504 1
w 527 -526 504 1
w 527 -526 -504 1
w 528 527 505 0.124368
w 528 527 -505 0.752201
w 528 -527 505 0.334265
w 528 -527 -505 0.702276
w 529 528 506 0
w 529 528 -506 1
w 529 -528 506 0
w 529 -528 -506 0